26	3
5	8	8	
0	0	0	0	24	2	3	4	5	6	7	8	9	10	11	12	13	14	15	16	17	18	19	20	21	22	23	24	25	
222	2	1	3	1	13	
5	1	1	2	1	11	
250	3	2	2	1	13	
1	2	1	1	1	12	
3	3	3	3	1	26	
2	2	1	1	1	26	
261	2	3	2	1	26	
173	2	3	1	1	26	
6	1	3	2	1	26	
104	4	2	3	1	26	
166	2	1	2	1	13	
208	3	3	1	1	16	
113	3	1	2	1	26	
200	1	2	3	1	26	
2	3	1	3	1	26	
200	3	3	1	1	26	
319	5	1	1	1	22	
1	3	2	2	1	26	
1	4	3	1	1	26	
2	4	1	1	1	26	
3	3	1	2	1	26	
3	4	2	2	1	26	
4	5	1	2	1	26	
102	5	2	2	1	26	
0	0	0	0	0	